31 88 62 63 90 32 20 1 
27 69 30 71 65 35 66 70 
21 56 4 26 
95 92 98 85 61 16 86 91 100 37 93 
72 75 23 67 39 25 55 54 
12 29 78 79 3 50 77 68 
5 83 45 8 18 84 17 60 89 
53 
52 7 47 36 49 46 48 
40 73 41 22 74 
94 99 96 6 
28 76 33 81 51 9 34 24 80 
2 15 42 87 97 13 
82 19 11 64 10 
59 44 38 14 43 57 58 
